p tw 128 1594
1 79
1 75
1 71
1 69
1 67
1 65
1 60
1 56
1 34
1 41
1 124
1 100
1 88
1 64
1 54
1 53
1 47
1 45
1 44
1 40
1 3
1 107
1 96
1 74
1 52
1 33
1 32
1 30
1 27
1 26
1 23
1 21
1 19
1 12
1 9
1 125
1 121
1 120
1 114
1 111
1 106
1 105
1 104
1 99
1 98
1 93
1 87
1 83
1 68
1 118
2 79
2 78
2 77
2 72
2 71
2 66
2 62
2 61
2 60
2 59
2 57
2 56
2 22
2 64
2 55
2 51
2 49
2 48
2 47
2 45
2 42
2 40
2 38
2 36
2 35
2 25
2 74
2 63
2 33
2 31
2 30
2 28
2 27
2 24
2 21
2 19
2 18
2 17
2 13
2 11
2 7
2 6
2 123
2 122
2 120
2 117
2 113
2 110
2 103
2 99
2 98
2 95
2 94
2 93
2 92
2 90
2 87
2 81
2 80
64 79
64 78
64 77
64 75
64 72
64 71
64 70
64 65
64 22
64 124
64 88
64 76
76 79
76 77
76 22
76 124
76 88
88 22
88 124
88 100
100 124
10 22
41 79
41 78
41 77
41 75
41 72
41 71
41 69
41 67
41 65
41 61
41 60
41 59
41 56
41 34
34 79
34 77
34 75
34 72
34 71
34 69
34 67
34 65
34 60
34 56
46 73
46 112
46 20
46 15
46 4
46 127
46 119
46 116
46 109
46 97
46 91
46 86
46 84
56 79
56 78
56 77
56 75
56 72
56 71
56 69
56 67
56 65
56 61
56 60
56 59
57 79
57 78
57 77
57 72
57 71
57 66
57 62
57 61
57 59
58 73
58 69
59 79
59 78
59 77
59 72
59 71
59 66
59 62
59 61
59 60
60 79
60 78
60 77
60 75
60 72
60 71
60 70
60 65
60 61
61 79
61 78
61 77
61 75
61 72
61 71
61 66
61 65
61 62
62 79
62 78
62 77
62 72
62 66
65 79
65 77
65 75
65 72
65 70
65 69
66 78
66 77
66 72
67 71
67 69
68 79
68 75
68 70
68 69
68 124
68 100
68 88
68 32
68 26
68 12
68 9
68 126
68 125
68 121
68 114
68 111
68 109
68 106
68 105
68 104
68 101
68 98
68 83
69 71
70 75
71 79
71 78
71 77
71 72
72 79
72 78
72 77
72 75
75 79
75 77
77 79
77 78
78 79
80 22
80 10
80 100
80 31
80 30
80 28
80 27
80 26
80 24
80 21
80 19
80 18
80 17
80 13
80 12
80 11
80 9
80 7
80 6
80 122
80 117
80 113
80 103
80 99
80 98
80 95
80 94
80 93
80 90
81 22
81 124
81 33
81 28
81 27
81 24
81 23
81 19
81 13
81 7
81 6
81 5
81 123
81 122
81 120
81 114
81 113
81 103
81 99
81 98
81 95
81 94
81 90
81 87
82 112
82 15
82 8
82 127
82 126
82 116
82 111
82 101
82 97
82 91
82 86
83 124
83 88
83 33
83 23
83 5
83 126
83 125
83 121
83 120
83 114
83 111
83 109
83 108
83 106
83 105
83 104
83 98
83 87
84 112
84 20
84 15
84 4
84 127
84 119
84 91
86 112
86 20
86 15
86 8
86 4
86 127
86 126
86 119
86 116
86 101
86 97
86 91
87 22
87 124
87 88
87 33
87 28
87 27
87 26
87 24
87 23
87 21
87 19
87 13
87 6
87 5
87 122
87 120
87 114
87 108
87 106
87 103
87 99
87 98
87 90
89 22
89 10
89 33
89 31
89 30
89 28
89 27
89 26
89 24
89 21
89 19
89 18
89 17
89 13
89 11
89 7
89 6
89 123
89 122
89 120
89 117
89 113
89 110
89 103
89 99
89 98
89 95
89 94
89 93
89 92
89 90
89 29
89 16
90 22
90 33
90 31
90 28
90 27
90 24
90 21
90 19
90 18
90 13
90 7
90 6
90 123
90 122
90 120
90 117
90 114
90 113
90 110
90 103
90 99
90 98
90 95
90 94
90 92
91 112
91 20
91 15
91 8
91 4
91 127
91 126
91 119
91 116
91 101
91 97
92 22
92 28
92 27
92 24
92 19
92 18
92 13
92 7
92 6
92 123
92 122
92 117
92 113
92 110
92 103
92 99
92 95
92 94
93 22
93 10
93 100
93 32
93 31
93 30
93 27
93 26
93 24
93 21
93 19
93 17
93 12
93 11
93 9
93 6
93 122
93 121
93 117
93 99
93 98
93 94
94 22
94 33
94 31
94 30
94 28
94 27
94 24
94 21
94 19
94 18
94 17
94 13
94 7
94 6
94 123
94 122
94 120
94 117
94 113
94 110
94 103
94 99
94 98
94 95
95 22
95 33
95 31
95 28
95 27
95 24
95 19
95 18
95 13
95 7
95 6
95 123
95 122
95 120
95 117
95 113
95 110
95 103
95 99
95 98
97 112
97 20
97 15
97 8
97 4
97 127
97 126
97 119
97 116
97 101
98 22
98 124
98 100
98 33
98 32
98 31
98 30
98 28
98 27
98 26
98 24
98 23
98 21
98 19
98 17
98 13
98 12
98 9
98 7
98 6
98 123
98 122
98 121
98 120
98 117
98 114
98 113
98 106
98 105
98 104
98 103
98 99
99 22
99 124
99 33
99 31
99 30
99 28
99 27
99 26
99 24
99 23
99 21
99 19
99 18
99 13
99 9
99 7
99 6
99 123
99 122
99 120
99 117
99 114
99 113
99 110
99 103
101 112
101 15
101 8
101 127
101 126
101 125
101 116
101 111
101 105
102 112
102 20
102 15
102 8
102 4
102 127
102 126
102 119
102 116
102 111
102 109
102 108
102 106
102 105
102 128
102 115
103 22
103 33
103 31
103 30
103 28
103 27
103 24
103 21
103 19
103 18
103 17
103 13
103 7
103 6
103 123
103 122
103 120
103 117
103 113
103 110
104 124
104 32
104 30
104 26
104 21
104 12
104 9
104 125
104 121
104 120
104 114
104 111
104 106
104 105
105 124
105 32
105 23
105 12
105 9
105 126
105 125
105 121
105 114
105 111
105 109
105 106
106 124
106 33
106 32
106 23
106 19
106 12
106 9
106 5
106 126
106 125
106 121
106 120
106 114
106 111
106 109
106 108
108 124
108 33
108 23
108 20
108 5
108 4
108 114
108 109
109 124
109 23
109 20
109 5
109 4
109 126
109 125
109 119
109 114
109 111
110 22
110 28
110 27
110 24
110 19
110 18
110 13
110 7
110 6
110 123
110 122
110 117
110 113
111 124
111 32
111 12
111 9
111 8
111 126
111 125
111 121
113 22
113 31
113 28
113 27
113 24
113 19
113 18
113 17
113 13
113 7
113 6
113 123
113 122
113 120
113 117
114 22
114 124
114 33
114 28
114 27
114 24
114 23
114 21
114 19
114 12
114 9
114 6
114 5
114 122
114 120
115 20
115 15
115 8
115 4
115 127
115 126
115 119
115 116
115 128
116 15
116 8
116 127
116 126
116 119
117 22
117 31
117 30
117 28
117 27
117 24
117 19
117 18
117 17
117 13
117 11
117 7
117 6
117 123
117 122
117 120
119 20
119 15
119 4
119 127
119 126
120 22
120 124
120 33
120 31
120 30
120 28
120 27
120 26
120 24
120 23
120 21
120 19
120 13
120 12
120 9
120 7
120 6
120 5
120 123
120 122
121 124
121 32
121 31
121 30
121 26
121 21
121 12
121 9
121 125
122 22
122 33
122 31
122 30
122 28
122 27
122 24
122 21
122 19
122 18
122 17
122 13
122 7
122 6
122 123
123 22
123 33
123 28
123 27
123 24
123 19
123 18
123 13
123 7
123 6
125 32
125 26
125 12
125 9
125 8
125 126
126 20
126 8
126 127
127 20
127 15
127 8
127 4
128 20
128 15
128 8
128 4
4 20
4 15
5 33
5 23
5 19
6 22
6 33
6 31
6 30
6 28
6 27
6 26
6 24
6 21
6 19
6 18
6 13
6 9
6 7
7 22
7 33
7 31
7 28
7 27
7 24
7 19
7 18
7 13
9 22
9 33
9 32
9 31
9 30
9 27
9 26
9 21
9 19
9 17
9 12
9 11
11 22
11 31
11 30
11 26
11 21
11 17
11 12
12 22
12 32
12 31
12 30
12 27
12 26
12 21
12 19
12 17
13 22
13 33
13 31
13 28
13 27
13 24
13 19
13 18
15 20
16 22
16 31
16 30
16 28
16 27
16 26
16 24
16 21
16 19
16 17
17 22
17 31
17 30
17 27
17 26
17 21
18 22
18 31
18 28
18 27
18 24
18 19
19 22
19 33
19 31
19 30
19 28
19 27
19 26
19 24
19 23
19 21
21 22
21 33
21 32
21 31
21 30
21 28
21 27
21 26
21 24
23 33
23 27
24 33
24 31
24 30
24 28
24 27
24 26
26 33
26 32
26 31
26 30
26 27
27 33
27 31
27 30
27 28
28 33
28 31
28 30
29 33
30 32
30 31
52 79
52 77
52 75
52 72
52 70
52 69
52 65
52 61
52 60
52 56
52 34
52 124
52 100
52 88
52 76
52 64
52 55
52 54
52 53
52 47
52 45
52 44
52 40
52 39
52 3
52 107
52 96
52 74
63 79
63 78
63 77
63 72
63 71
63 66
63 62
63 61
63 60
63 59
63 57
63 56
63 22
63 10
63 76
63 64
63 55
63 51
63 50
63 49
63 48
63 47
63 45
63 42
63 40
63 38
63 36
63 35
63 25
63 107
63 74
74 79
74 78
74 77
74 75
74 72
74 71
74 66
74 65
74 62
74 61
74 60
74 59
74 57
74 56
74 34
74 22
74 124
74 100
74 88
74 76
74 64
74 55
74 54
74 53
74 51
74 50
74 49
74 48
74 47
74 45
74 44
74 42
74 40
74 38
74 36
74 35
74 25
74 3
74 107
74 96
85 73
85 58
85 112
85 39
96 79
96 77
96 75
96 72
96 70
96 65
96 61
96 60
96 56
96 34
96 22
96 124
96 88
96 76
96 64
96 55
96 54
96 53
96 47
96 45
96 44
96 40
96 35
96 3
96 107
107 79
107 77
107 75
107 72
107 71
107 70
107 69
107 67
107 65
107 61
107 60
107 56
107 34
107 22
107 124
107 100
107 88
107 76
107 64
107 55
107 54
107 53
107 47
107 45
107 44
107 40
107 39
107 35
107 3
118 79
118 78
118 77
118 75
118 72
118 71
118 66
118 65
118 62
118 61
118 60
118 59
118 57
118 56
118 34
118 22
118 124
118 100
118 88
118 76
118 64
118 55
118 54
118 53
118 51
118 49
118 48
118 47
118 45
118 44
118 42
118 40
118 38
118 36
118 35
118 25
118 3
118 33
118 31
118 30
118 28
118 27
118 26
118 24
118 23
118 21
118 19
118 18
118 13
118 12
118 9
118 7
118 6
118 5
118 123
118 122
118 120
118 117
118 114
118 113
118 110
118 106
118 103
118 99
118 98
118 95
118 94
118 90
118 87
118 83
118 81
118 80
3 79
3 75
3 71
3 69
3 67
3 65
3 60
3 56
3 34
3 124
3 100
3 88
3 76
3 64
3 55
3 54
3 53
3 47
3 45
3 44
3 40
3 39
14 73
14 112
14 39
14 37
25 79
25 78
25 77
25 72
25 66
25 62
25 61
25 59
25 57
25 22
25 55
25 51
25 49
25 48
25 47
25 45
25 40
25 38
25 36
25 35
35 79
35 78
35 77
35 75
35 72
35 66
35 62
35 61
35 60
35 59
35 57
35 56
35 22
35 76
35 64
35 55
35 51
35 49
35 48
35 47
35 45
35 40
35 38
35 36
36 79
36 78
36 77
36 72
36 71
36 66
36 62
36 61
36 59
36 57
36 22
36 10
36 55
36 51
36 50
36 49
36 48
36 47
36 45
36 42
36 40
36 38
37 73
37 112
38 78
38 77
38 72
38 66
38 62
38 61
38 59
38 57
38 22
38 55
38 51
38 49
38 48
38 47
38 45
38 40
39 73
39 70
39 65
39 58
39 124
39 112
39 88
39 53
39 44
40 79
40 78
40 77
40 75
40 72
40 71
40 66
40 65
40 62
40 61
40 60
40 59
40 57
40 56
40 22
40 124
40 100
40 88
40 76
40 64
40 55
40 54
40 53
40 51
40 49
40 48
40 47
40 45
40 44
40 42
42 79
42 78
42 77
42 72
42 71
42 67
42 62
42 61
42 59
42 57
42 56
42 22
42 10
42 100
42 54
42 51
42 50
42 48
42 47
42 45
43 73
43 58
43 112
43 20
43 15
43 8
43 4
43 127
43 126
43 119
43 116
43 101
43 97
43 91
43 86
43 84
43 82
43 46
44 79
44 77
44 75
44 72
44 71
44 70
44 69
44 67
44 65
44 61
44 60
44 56
44 22
44 124
44 100
44 88
44 76
44 64
44 55
44 54
44 53
44 47
44 45
45 79
45 78
45 77
45 75
45 72
45 71
45 66
45 65
45 62
45 61
45 60
45 59
45 57
45 56
45 22
45 124
45 88
45 76
45 64
45 55
45 54
45 53
45 51
45 49
45 48
45 47
47 79
47 78
47 77
47 75
47 72
47 71
47 66
47 65
47 62
47 61
47 60
47 59
47 57
47 56
47 22
47 124
47 88
47 76
47 64
47 55
47 54
47 53
47 51
47 49
47 48
48 79
48 78
48 77
48 72
48 71
48 66
48 62
48 61
48 59
48 57
48 22
48 10
48 64
48 55
48 51
48 50
48 49
49 79
49 78
49 77
49 72
49 66
49 62
49 61
49 60
49 59
49 57
49 56
49 22
49 76
49 64
49 55
49 51
50 78
50 71
50 57
50 22
50 10
50 51
51 79
51 78
51 77
51 72
51 71
51 66
51 62
51 61
51 59
51 57
51 56
51 22
51 10
51 55
53 79
53 75
53 70
53 65
53 60
53 56
53 124
53 88
53 76
53 64
53 55
53 54
54 79
54 75
54 71
54 69
54 67
54 65
54 60
54 58
54 56
54 124
54 100
54 88
54 64
55 79
55 78
55 77
55 75
55 72
55 71
55 66
55 65
55 62
55 61
55 60
55 59
55 57
55 56
55 22
55 124
55 88
55 76
55 64
